45 39
21 28
86 42
87 70
50 92
13 74
28 39
89 2
98 58
32 99
83 99
69 55
63 19
73 76
64 19
5 38
24 99
16 28
19 49
67 65
17 29
78 40
7 80
28 69
45 53
35 87
59 29
38 58
35 93
48 36
22 40
77 75
85 91
5 92
48 21
43 55
64 68
77 85
91 97
49 90
24 81
38 53
98 46
35 50
56 68
85 44
31 36
8 21
5 14
1 36
